peakDumbCharging = 37000; 
Machine = anon_enum(16); 
machineSpeed = [3700,3700,3700,3700,3700,3700,3700,3700,3700,3700,3700,3700,3700,3700,3700,3700]; 
machineLoad = [3700,3700,3700,3700,3700,3700,3700,3700,3700,3700,3700,3700,3700,3700,3700,3700]; 
Car = anon_enum(40); 
demandCar = [4240,6160,7560,7920,8440,5640,16200,18360,32000,29680,3600,5480,5200,3240,4280,7360,3440,6400,1520,7840,27160,12040,3200,22920,12640,13760,6160,6600,3520,8960,6160,32640,13320,25240,7880,18600,5520,6360,24600,1960]; 
arrivalCar = [73,72,72,67,66,62,60,60,60,59,59,58,58,55,55,55,55,55,54,53,53,53,52,51,50,48,48,48,47,45,42,41,41,40,38,38,38,37,36,33]; 
departureCar = [76,75,75,72,70,66,66,68,70,69,62,61,61,57,57,72,60,57,55,59,70,58,54,64,57,54,54,51,49,49,45,53,47,48,43,49,40,40,53,34]; 
